letting n =  10
letting blocks =  [[1, 3], [1, 7], [2, 1], [2, 10], [3, 2], [3, 3], [3, 4], [3, 7], [4, 4], [4, 5], [4, 8], [4, 9], [5, 3], [5, 6], [5, 7], [5, 8], [5, 9], [6, 1], [6, 2], [6, 7], [6, 10], [7, 1], [7, 2], [7, 4], [7, 7], [7, 8], [7, 9], [8, 4], [8, 5], [8, 6], [8, 7], [8, 9], [9, 1], [9, 3], [9, 9], [9, 10], [10, 1], [10, 2], [10, 5], [10, 9]]
